Gurobi 12.0.3:   lim:time = 14400

  mip:bestbound = 1

Set parameter LogToConsole to value 1

  tech:outlev = 1

Set parameter Cuts to value 3

  cut:cuts = 3

Set parameter Presolve to value 2

  pre:solve = 2

Set parameter MIPFocus to value 2

  mip:focus = 2

Set parameter Symmetry to value 2

  mip:symmetry = 2

Set parameter InfUnbdInfo to value 1

Gurobi Optimizer version 12.0.3 build v12.0.3rc0 (win64 - Windows 11+.0 (26200.2))



CPU model: 13th Gen Intel(R) Core(TM) i7-13700K, instruction set [SSE2|AVX|AVX2]

Thread count: 16 physical cores, 24 logical processors, using up to 24 threads



Non-default parameters:

TimeLimit  14400

MIPFocus  2

Symmetry  2

Cuts  3

InfUnbdInfo  1

Presolve  2



Optimize a model with 490 rows, 1162 columns and 6720 nonzeros

Model fingerprint: 0x30bec100

Model has 4 quadratic constraints

Variable types: 42 continuous, 1120 integer (0 binary)

Coefficient statistics:

  Matrix range     [1e+00, 1e+05]

  QMatrix range    [1e+00, 1e+00]

  QLMatrix range   [1e+01, 1e+01]

  Objective range  [4e+00, 1e+02]

  Bounds range     [1e+00, 1e+02]

  RHS range        [1e+00, 1e+05]

  QRHS range       [1e+02, 1e+02]

Presolve removed 41 rows and 101 columns

Presolve time: 0.15s

Presolved: 1165 rows, 1773 columns, 10787 nonzeros

Variable types: 15 continuous, 1758 integer (1388 binary)

Root relaxation presolve removed 20 rows and 0 columns

Root relaxation presolved: 780 rows, 1409 columns, 14754 nonzeros





Root relaxation: objective 1.580955e+02, 139 iterations, 0.01 seconds (0.02 work units)



    Nodes    |    Current Node    |     Objective Bounds      |     Work

 Expl Unexpl |  Obj  Depth IntInf | Incumbent    BestBd   Gap | It/Node Time



     0     0  158.09552    0   39          -  158.09552      -     -    0s

H    0     0                     673.0100000  158.09552  76.5%     -    0s

H    0     0                     669.9000000  158.09552  76.4%     -    0s

     0     0  211.99500    0   71  669.90000  211.99500  68.4%     -    0s

H    0     0                     505.7700000  211.99539  58.1%     -    0s

     0     0  212.98000    0   55  505.77000  212.98000  57.9%     -    0s

     0     0  212.98000    0  109  505.77000  212.98000  57.9%     -    0s

     0     0  212.98000    0   54  505.77000  212.98000  57.9%     -    0s

     0     0  212.98039    0   53  505.77000  212.98039  57.9%     -    0s

     0     0  212.98039    0   35  505.77000  212.98039  57.9%     -    0s

H    0     0                     469.3500000  212.98039  54.6%     -    0s

H    0     0                     389.2600000  212.98039  45.3%     -    0s

H    0     0                     385.2400000  212.98039  44.7%     -    0s

     0     0  214.17697    0   63  385.24000  214.17697  44.4%     -    0s

     0     0  216.38804    0   77  385.24000  216.38804  43.8%     -    0s

     0     0  216.63338    0   75  385.24000  216.63338  43.8%     -    0s

     0     0  217.96008    0   74  385.24000  217.96008  43.4%     -    0s

     0     0  217.96008    0   74  385.24000  217.96008  43.4%     -    1s

H    0     0                     384.6800000  217.96008  43.3%     -    1s

H    0     0                     363.4400000  217.96008  40.0%     -    1s

H    0     2                     362.6400000  217.96008  39.9%     -    1s

     0     2  217.96008    0   58  362.64000  217.96008  39.9%     -    1s

H   45    47                     354.3000000  217.96010  38.5%  40.2    1s

H  985   695                     341.7800000  218.03400  36.2%  20.7    1s

  3114  1717  226.65785   16   99  341.78000  224.92506  34.2%  19.2    5s

  3169  1753  233.68900   15  161  341.78000  232.55885  32.0%  18.9   10s

  9453  2923  308.88200   19   57  341.78000  251.02987  26.6%  21.6   15s

 22299  6743  275.53640   29   68  341.78000  260.73179  23.7%  20.5   20s

 32563  8783  321.64667   30   15  341.78000  267.07189  21.9%  20.5   25s

 42879 10285  308.16811   37   94  341.78000  274.17263  19.8%  20.3   30s

 51336 11483 infeasible   32       341.78000  278.74953  18.4%  20.5   35s

 59965 12160  291.28844   39   59  341.78000  283.06440  17.2%  20.5   41s

 64846 12485  308.18112   35   44  341.78000  286.16446  16.3%  20.5   45s

 72284 13069 infeasible   31       341.78000  289.69917  15.2%  20.5   50s

 80384 13594  302.03111   35   44  341.78000  292.73157  14.4%  20.4   56s

 88466 13969  302.46000   40   32  341.78000  295.88667  13.4%  20.5   61s

 94162 14176  301.48200   38   53  341.78000  297.95441  12.8%  20.4   65s

 102319 14240  307.37265   46   77  341.78000  300.12000  12.2%  20.4   71s

 106910 14601  303.66811   30   67  341.78000  301.51740  11.8%  20.4   75s

 114869 14666  333.27600   37   57  341.78000  303.48333  11.2%  20.4   81s

 119924 14669  336.93702   34   41  341.78000  304.66176  10.9%  20.4   85s

 128604 14776  310.93082   42   39  341.78000  306.67378  10.3%  20.3   91s

 136607 14590 infeasible   39       341.78000  308.64982  9.69%  20.3   95s

 147138 14191 infeasible   25       341.78000  311.12702  8.97%  20.2  100s

 158023 13596  319.11298   32   48  341.78000  313.39408  8.31%  20.1  105s

 168210 13086     cutoff   58       341.78000  315.25456  7.76%  20.0  110s

 178856 12182 infeasible   35       341.78000  317.32559  7.16%  19.9  115s

 189617 10749 infeasible   29       341.78000  319.48000  6.52%  19.8  121s

 197582  9457 infeasible   46       341.78000  321.40167  5.96%  19.7  125s

 208211  7124     cutoff   45       341.78000  324.42955  5.08%  19.5  131s

 216310  4730  330.86090   41   41  341.78000  327.32092  4.23%  19.4  135s

 226865     0     cutoff   39       341.78000  334.25836  2.20%  19.2  140s



Cutting planes:

  Learned: 12

  Gomory: 39

  Lift-and-project: 25

  Cover: 214

  Implied bound: 139

  Projected implied bound: 14

  Clique: 87

  MIR: 62

  Mixing: 3

  StrongCG: 6

  Flow cover: 170

  GUB cover: 1

  Inf proof: 104

  Zero half: 408

  RLT: 124

  Relax-and-lift: 199



Explored 228320 nodes (4369842 simplex iterations) in 140.25 seconds (50.74 work units)

Thread count was 24 (of 24 available processors)



Solution count 10: 341.78 341.78 354.3 ... 505.77



Optimal solution found (tolerance 1.00e-04)

Best objective 3.417800000000e+02, best bound 3.417800000000e+02, gap 0.0000%



AMPL MP initial flat model has 1162 variables (0 integer, 1120 binary);

Objectives: 1 linear; 

Constraints:  490 linear; 4 quadratic;



AMPL MP final model has 1162 variables (0 integer, 1120 binary);

Objectives: 1 linear; 

Constraints:  490 linear; 4 quadratic;





-----RESULTS INFO-----
running_time:  140.35999999999999
TC.best_bound:  341.78
TC:  341.78
MIP Gap (%):  0
=== Vehicle Routes ===
Vehicle 1: 0 → 3
Vehicle 1: 1 → 21
Vehicle 1: 2 → 1
Vehicle 1: 3 → 18
Vehicle 1: 18 → 2
Vehicle 2: 0 → 17
Vehicle 2: 15 → 19
Vehicle 2: 17 → 15
Vehicle 2: 19 → 21
Vehicle 3: 0 → 21
Vehicle 4: 0 → 21

=== Full Vehicle Routes ===
Vehicle 1: 0 → 3 → 18 → 2 → 1 → 0 (63<100)
Vehicle 2: 0 → 17 → 15 → 19 → 0 (97<100)
Vehicle 3: 0 → 0 (0<100)
Vehicle 4: 0 → 0 (0<100)
Arc used by MRT line: y variables:
Customer assigment to PL: u variables:
4 18
5 19
6 17
7 18
8 15
9 19
10 19
11 17
12 19
13 17
Node is served by regular vehicle: g variables:
1
2
3
15
17
18
19
Customer assigment to Home delivery: gm variables:
1
2
3
Node total demands: ntd variables:
1 13 1
2 12 1
3 13 1
9 0 0
10 0 0
11 0 0
12 0 0
13 0 0
20 0 0
14 0 0
15 12 1
16 0 0
17 33 1
18 25 1
19 52 1
Customer's demand delivered to PL: l variables:
4
5
6
7
8
9
10
11
12
13
Lockers load <= capacity:
0 <= 71
0 <= 74
12 <= 98
0 <= 84
33 <= 82
25 <= 93
52 <= 73
